Maximize
  -9.99e-06 phi_3_fork_299_mg0_slots - 9.99e-05 phi_3_fork_299_mg0_hasBuffer - 9.99e-06 load_6_fork_10122_mg0_slots - 9.99e-05 load_6_fork_10122_mg0_hasBuffer - 9.99e-06 load_9_add_1360_mg0_slots - 9.99e-05 load_9_add_1360_mg0_hasBuffer - 9.99e-06 load_12_add_1359_mg0_slots - 9.99e-05 load_12_add_1359_mg0_hasBuffer - 9.99e-06 add_13_store_062_mg0_slots - 9.99e-05 add_13_store_062_mg0_hasBuffer - 9.99e-06 cst_2_add_1669_mg0_slots - 9.99e-05 cst_2_add_1669_mg0_hasBuffer - 9.99e-06 add_16_fork_3103_mg0_slots - 9.99e-05 add_16_fork_3103_mg0_hasBuffer - 9.99e-06 icmp_17_fork_4106_mg0_slots - 9.99e-05 icmp_17_fork_4106_mg0_hasBuffer - 9.99e-06 phi_n0_fork_6111_mg0_slots - 9.99e-05 phi_n0_fork_6111_mg0_hasBuffer - 9.99e-06 phiC_1_forkC_7114_mg0_slots - 9.99e-05 phiC_1_forkC_7114_mg0_hasBuffer - 9.99e-06 branch_0_phi_344_mg0_slots - 9.99e-05 branch_0_phi_344_mg0_hasBuffer - 9.99e-06 phi_n3_fork_8118_mg0_slots - 9.99e-05 phi_n3_fork_8118_mg0_hasBuffer - 9.99e-06 branch_4_phi_n077_mg0_slots - 9.99e-05 branch_4_phi_n077_mg0_hasBuffer - 9.99e-06 branchC_7_phiC_181_mg0_slots - 9.99e-05 branchC_7_phiC_181_mg0_hasBuffer - 9.99e-06 fork_2_load_648_mg0_slots - 9.99e-05 fork_2_load_648_mg0_hasBuffer - 9.99e-06 fork_2_load_952_mg0_slots - 9.99e-05 fork_2_load_952_mg0_hasBuffer - 9.99e-06 fork_2_add_1668_mg0_slots - 9.99e-05 fork_2_add_1668_mg0_hasBuffer - 9.99e-06 fork_3_icmp_1771_mg0_slots - 9.99e-05 fork_3_icmp_1771_mg0_hasBuffer - 9.99e-06 fork_3_branch_084_mg0_slots - 9.99e-05 fork_3_branch_084_mg0_hasBuffer - 9.99e-06 fork_4_branch_085_mg0_slots - 9.99e-05 fork_4_branch_085_mg0_hasBuffer - 9.99e-06 fork_4_phi_n389_mg0_slots - 9.99e-05 fork_4_phi_n389_mg0_hasBuffer - 9.99e-06 fork_4_branch_492_mg0_slots - 9.99e-05 fork_4_branch_492_mg0_hasBuffer - 9.99e-06 fork_4_branchC_796_mg0_slots - 9.99e-05 fork_4_branchC_796_mg0_hasBuffer - 9.99e-06 fork_6_icmp_1772_mg0_slots - 9.99e-05 fork_6_icmp_1772_mg0_hasBuffer - 9.99e-06 fork_6_branch_491_mg0_slots - 9.99e-05 fork_6_branch_491_mg0_hasBuffer - 9.99e-06 forkC_7_cst_266_mg0_slots - 9.99e-05 forkC_7_cst_266_mg0_hasBuffer - 9.99e-06 forkC_7_forkC_074_mg0_slots - 9.99e-05 forkC_7_forkC_074_mg0_hasBuffer - 9.99e-06 forkC_7_branchC_795_mg0_slots - 9.99e-05 forkC_7_branchC_795_mg0_hasBuffer - 9.99e-06 fork_8_phi_343_mg0_slots - 9.99e-05 fork_8_phi_343_mg0_hasBuffer - 9.99e-06 fork_8_phi_n076_mg0_slots - 9.99e-05 fork_8_phi_n076_mg0_hasBuffer - 9.99e-06 fork_8_phiC_180_mg0_slots - 9.99e-05 fork_8_phiC_180_mg0_hasBuffer - 9.99e-06 fork_10_load_1256_mg0_slots - 9.99e-05 fork_10_load_1256_mg0_hasBuffer - 9.99e-06 fork_10_store_063_mg0_slots - 9.99e-05 fork_10_store_063_mg0_hasBuffer + 0.999 x231
Subject to
  timePath_phi_3_out1_mg0 <= 4
  timePath_fork_2_in1_mg0 <= 4
  8 phi_3_fork_299_mg0_flop - timePath_phi_3_out1_mg0 + timePath_fork_2_in1_mg0 >= 0
  timePath_load_6_out1_mg0 <= 4
  timePath_fork_10_in1_mg0 <= 4
  8 load_6_fork_10122_mg0_flop - timePath_load_6_out1_mg0 + timePath_fork_10_in1_mg0 >= 0
  timePath_load_9_out1_mg0 <= 4
  timePath_add_13_in2_mg0 <= 4
  8 load_9_add_1360_mg0_flop - timePath_load_9_out1_mg0 + timePath_add_13_in2_mg0 >= 0
  timePath_load_12_out1_mg0 <= 4
  timePath_add_13_in1_mg0 <= 4
  8 load_12_add_1359_mg0_flop - timePath_load_12_out1_mg0 + timePath_add_13_in1_mg0 >= 0
  timePath_add_13_out1_mg0 <= 4
  timePath_store_0_in1_mg0 <= 4
  8 add_13_store_062_mg0_flop - timePath_add_13_out1_mg0 + timePath_store_0_in1_mg0 >= 0
  timePath_cst_2_out1_mg0 <= 4
  timePath_add_16_in2_mg0 <= 4
  8 cst_2_add_1669_mg0_flop - timePath_cst_2_out1_mg0 + timePath_add_16_in2_mg0 >= 0
  timePath_add_16_out1_mg0 <= 4
  timePath_fork_3_in1_mg0 <= 4
  8 add_16_fork_3103_mg0_flop - timePath_add_16_out1_mg0 + timePath_fork_3_in1_mg0 >= 0
  timePath_icmp_17_out1_mg0 <= 4
  timePath_fork_4_in1_mg0 <= 4
  8 icmp_17_fork_4106_mg0_flop - timePath_icmp_17_out1_mg0 + timePath_fork_4_in1_mg0 >= 0
  timePath_phi_n0_out1_mg0 <= 4
  timePath_fork_6_in1_mg0 <= 4
  8 phi_n0_fork_6111_mg0_flop - timePath_phi_n0_out1_mg0 + timePath_fork_6_in1_mg0 >= 0
  timePath_phiC_1_out1_mg0 <= 4
  timePath_forkC_7_in1_mg0 <= 4
  8 phiC_1_forkC_7114_mg0_flop - timePath_phiC_1_out1_mg0 + timePath_forkC_7_in1_mg0 >= 0
  timePath_branch_0_out2_mg0 <= 4
  timePath_phi_3_in2_mg0 <= 4
  8 branch_0_phi_344_mg0_flop + timePath_phi_3_in2_mg0 - timePath_branch_0_out2_mg0 >= 0
  timePath_phi_n3_out1_mg0 <= 4
  timePath_fork_8_in1_mg0 <= 4
  8 phi_n3_fork_8118_mg0_flop - timePath_phi_n3_out1_mg0 + timePath_fork_8_in1_mg0 >= 0
  timePath_branch_4_out2_mg0 <= 4
  timePath_phi_n0_in2_mg0 <= 4
  8 branch_4_phi_n077_mg0_flop + timePath_phi_n0_in2_mg0 - timePath_branch_4_out2_mg0 >= 0
  timePath_branchC_7_out2_mg0 <= 4
  timePath_phiC_1_in2_mg0 <= 4
  8 branchC_7_phiC_181_mg0_flop + timePath_phiC_1_in2_mg0 - timePath_branchC_7_out2_mg0 >= 0
  timePath_fork_2_out2_mg0 <= 4
  timePath_load_6_in2_mg0 <= 4
  8 fork_2_load_648_mg0_flop + timePath_load_6_in2_mg0 - timePath_fork_2_out2_mg0 >= 0
  timePath_fork_2_out3_mg0 <= 4
  timePath_load_9_in2_mg0 <= 4
  8 fork_2_load_952_mg0_flop + timePath_load_9_in2_mg0 - timePath_fork_2_out3_mg0 >= 0
  timePath_fork_2_out1_mg0 <= 4
  timePath_add_16_in1_mg0 <= 4
  8 fork_2_add_1668_mg0_flop + timePath_add_16_in1_mg0 - timePath_fork_2_out1_mg0 >= 0
  timePath_fork_3_out1_mg0 <= 4
  timePath_icmp_17_in1_mg0 <= 4
  8 fork_3_icmp_1771_mg0_flop + timePath_icmp_17_in1_mg0 - timePath_fork_3_out1_mg0 >= 0
  timePath_fork_3_out2_mg0 <= 4
  timePath_branch_0_in1_mg0 <= 4
  8 fork_3_branch_084_mg0_flop + timePath_branch_0_in1_mg0 - timePath_fork_3_out2_mg0 >= 0
  timePath_fork_4_out1_mg0 <= 4
  timePath_branch_0_in2_mg0 <= 4
  8 fork_4_branch_085_mg0_flop + timePath_branch_0_in2_mg0 - timePath_fork_4_out1_mg0 >= 0
  timePath_fork_4_out2_mg0 <= 4
  timePath_phi_n3_in2_mg0 <= 4
  8 fork_4_phi_n389_mg0_flop + timePath_phi_n3_in2_mg0 - timePath_fork_4_out2_mg0 >= 0
  timePath_fork_4_out3_mg0 <= 4
  timePath_branch_4_in2_mg0 <= 4
  8 fork_4_branch_492_mg0_flop + timePath_branch_4_in2_mg0 - timePath_fork_4_out3_mg0 >= 0
  timePath_fork_4_out4_mg0 <= 4
  timePath_branchC_7_in2_mg0 <= 4
  8 fork_4_branchC_796_mg0_flop + timePath_branchC_7_in2_mg0 - timePath_fork_4_out4_mg0 >= 0
  timePath_fork_6_out1_mg0 <= 4
  timePath_icmp_17_in2_mg0 <= 4
  8 fork_6_icmp_1772_mg0_flop + timePath_icmp_17_in2_mg0 - timePath_fork_6_out1_mg0 >= 0
  timePath_fork_6_out2_mg0 <= 4
  timePath_branch_4_in1_mg0 <= 4
  8 fork_6_branch_491_mg0_flop + timePath_branch_4_in1_mg0 - timePath_fork_6_out2_mg0 >= 0
  timePath_forkC_7_out1_mg0 <= 4
  timePath_cst_2_in1_mg0 <= 4
  8 forkC_7_cst_266_mg0_flop + timePath_cst_2_in1_mg0 - timePath_forkC_7_out1_mg0 >= 0
  timePath_forkC_7_out3_mg0 <= 4
  timePath_forkC_0_in1_mg0 <= 4
  8 forkC_7_forkC_074_mg0_flop + timePath_forkC_0_in1_mg0 - timePath_forkC_7_out3_mg0 >= 0
  timePath_forkC_7_out2_mg0 <= 4
  timePath_branchC_7_in1_mg0 <= 4
  8 forkC_7_branchC_795_mg0_flop + timePath_branchC_7_in1_mg0 - timePath_forkC_7_out2_mg0 >= 0
  timePath_fork_8_out1_mg0 <= 4
  timePath_phi_3_in1_mg0 <= 4
  8 fork_8_phi_343_mg0_flop + timePath_phi_3_in1_mg0 - timePath_fork_8_out1_mg0 >= 0
  timePath_fork_8_out2_mg0 <= 4
  timePath_phi_n0_in1_mg0 <= 4
  8 fork_8_phi_n076_mg0_flop + timePath_phi_n0_in1_mg0 - timePath_fork_8_out2_mg0 >= 0
  timePath_fork_8_out3_mg0 <= 4
  timePath_phiC_1_in1_mg0 <= 4
  8 fork_8_phiC_180_mg0_flop + timePath_phiC_1_in1_mg0 - timePath_fork_8_out3_mg0 >= 0
  timePath_fork_10_out1_mg0 <= 4
  timePath_load_12_in2_mg0 <= 4
  8 fork_10_load_1256_mg0_flop + timePath_load_12_in2_mg0 - timePath_fork_10_out1_mg0 >= 0
  timePath_fork_10_out2_mg0 <= 4
  timePath_store_0_in2_mg0 <= 4
  8 fork_10_store_063_mg0_flop + timePath_store_0_in2_mg0 - timePath_fork_10_out2_mg0 >= 0
  -timePath_phi_3_in1_mg0 + timePath_phi_3_out1_mg0 >= 0.366
  -timePath_phi_3_in2_mg0 + timePath_phi_3_out1_mg0 >= 0.366
  timePath_load_6_out1_mg0 = 0
  timePath_load_6_in2_mg0 <= 4
  timePath_load_9_out1_mg0 = 0
  timePath_load_9_in2_mg0 <= 4
  timePath_load_12_out1_mg0 = 0
  timePath_load_12_in2_mg0 <= 4
  -timePath_add_13_in1_mg0 + timePath_add_13_out1_mg0 >= 1.693
  -timePath_add_13_in2_mg0 + timePath_add_13_out1_mg0 >= 1.693
  -timePath_cst_2_in1_mg0 + timePath_cst_2_out1_mg0 >= 0
  -timePath_add_16_in1_mg0 + timePath_add_16_out1_mg0 >= 1.693
  -timePath_add_16_in2_mg0 + timePath_add_16_out1_mg0 >= 1.693
  -timePath_icmp_17_in1_mg0 + timePath_icmp_17_out1_mg0 >= 1.53
  -timePath_icmp_17_in2_mg0 + timePath_icmp_17_out1_mg0 >= 1.53
  -timePath_phi_n0_in1_mg0 + timePath_phi_n0_out1_mg0 >= 0.366
  -timePath_phi_n0_in2_mg0 + timePath_phi_n0_out1_mg0 >= 0.366
  -timePath_phiC_1_in1_mg0 + timePath_phiC_1_out1_mg0 >= 0.166
  -timePath_phiC_1_in2_mg0 + timePath_phiC_1_out1_mg0 >= 0.166
  -timePath_branch_0_in1_mg0 + timePath_branch_0_out2_mg0 >= 0
  -timePath_branch_0_in2_mg0 + timePath_branch_0_out2_mg0 >= 0
  -timePath_phi_n3_in2_mg0 + timePath_phi_n3_out1_mg0 >= 0.366
  -timePath_branch_4_in1_mg0 + timePath_branch_4_out2_mg0 >= 0
  -timePath_branch_4_in2_mg0 + timePath_branch_4_out2_mg0 >= 0
  -timePath_branchC_7_in1_mg0 + timePath_branchC_7_out2_mg0 >= 0
  -timePath_branchC_7_in2_mg0 + timePath_branchC_7_out2_mg0 >= 0
  -timePath_fork_2_in1_mg0 + timePath_fork_2_out1_mg0 >= 0
  -timePath_fork_2_in1_mg0 + timePath_fork_2_out2_mg0 >= 0
  -timePath_fork_2_in1_mg0 + timePath_fork_2_out3_mg0 >= 0
  -timePath_fork_3_in1_mg0 + timePath_fork_3_out1_mg0 >= 0
  -timePath_fork_3_in1_mg0 + timePath_fork_3_out2_mg0 >= 0
  -timePath_fork_4_in1_mg0 + timePath_fork_4_out1_mg0 >= 0
  -timePath_fork_4_in1_mg0 + timePath_fork_4_out2_mg0 >= 0
  -timePath_fork_4_in1_mg0 + timePath_fork_4_out3_mg0 >= 0
  -timePath_fork_4_in1_mg0 + timePath_fork_4_out4_mg0 >= 0
  -timePath_fork_6_in1_mg0 + timePath_fork_6_out1_mg0 >= 0
  -timePath_fork_6_in1_mg0 + timePath_fork_6_out2_mg0 >= 0
  -timePath_forkC_7_in1_mg0 + timePath_forkC_7_out1_mg0 >= 0
  -timePath_forkC_7_in1_mg0 + timePath_forkC_7_out2_mg0 >= 0
  -timePath_forkC_7_in1_mg0 + timePath_forkC_7_out3_mg0 >= 0
  -timePath_fork_8_in1_mg0 + timePath_fork_8_out1_mg0 >= 0
  -timePath_fork_8_in1_mg0 + timePath_fork_8_out2_mg0 >= 0
  -timePath_fork_8_in1_mg0 + timePath_fork_8_out3_mg0 >= 0
  -timePath_fork_10_in1_mg0 + timePath_fork_10_out1_mg0 >= 0
  -timePath_fork_10_in1_mg0 + timePath_fork_10_out2_mg0 >= 0
  49 phi_3_fork_299_mg0_flop - timeElastic_phi_3_out1_mg0 + timeElastic_fork_2_in1_mg0 >= 0
  -phi_3_fork_299_mg0_flop + phi_3_fork_299_mg0_slots >= 0
  0.99 phi_3_fork_299_mg0_slots >= 0
  49 load_6_fork_10122_mg0_flop - timeElastic_load_6_out1_mg0 + timeElastic_fork_10_in1_mg0 >= 0
  -load_6_fork_10122_mg0_flop + load_6_fork_10122_mg0_slots >= 0
  -0.01 load_6_fork_10122_mg0_slots + load_6_fork_10122_mg0_hasBuffer >= 0
  49 load_9_add_1360_mg0_flop - timeElastic_load_9_out1_mg0 + timeElastic_add_13_in2_mg0 >= 0
  -load_9_add_1360_mg0_flop + load_9_add_1360_mg0_slots >= 0
  -0.01 load_9_add_1360_mg0_slots + load_9_add_1360_mg0_hasBuffer >= 0
  49 load_12_add_1359_mg0_flop - timeElastic_load_12_out1_mg0 + timeElastic_add_13_in1_mg0 >= 0
  -load_12_add_1359_mg0_flop + load_12_add_1359_mg0_slots >= 0
  -0.01 load_12_add_1359_mg0_slots + load_12_add_1359_mg0_hasBuffer >= 0
  49 add_13_store_062_mg0_flop - timeElastic_add_13_out1_mg0 + timeElastic_store_0_in1_mg0 >= 0
  -add_13_store_062_mg0_flop + add_13_store_062_mg0_slots >= 0
  -0.01 add_13_store_062_mg0_slots + add_13_store_062_mg0_hasBuffer >= 0
  49 cst_2_add_1669_mg0_flop - timeElastic_cst_2_out1_mg0 + timeElastic_add_16_in2_mg0 >= 0
  -cst_2_add_1669_mg0_flop + cst_2_add_1669_mg0_slots >= 0
  -0.01 cst_2_add_1669_mg0_slots + cst_2_add_1669_mg0_hasBuffer >= 0
  49 add_16_fork_3103_mg0_flop - timeElastic_add_16_out1_mg0 + timeElastic_fork_3_in1_mg0 >= 0
  -add_16_fork_3103_mg0_flop + add_16_fork_3103_mg0_slots >= 0
  -0.01 add_16_fork_3103_mg0_slots + add_16_fork_3103_mg0_hasBuffer >= 0
  49 icmp_17_fork_4106_mg0_flop - timeElastic_icmp_17_out1_mg0 + timeElastic_fork_4_in1_mg0 >= 0
  -icmp_17_fork_4106_mg0_flop + icmp_17_fork_4106_mg0_slots >= 0
  -0.01 icmp_17_fork_4106_mg0_slots + icmp_17_fork_4106_mg0_hasBuffer >= 0
  49 phi_3_fork_299_mg0_flop - timeElastic_phi_n0_out1_mg0 + timeElastic_fork_6_in1_mg0 >= 0
  -phi_3_fork_299_mg0_flop + phi_3_fork_299_mg0_slots >= 0
  0.99 phi_3_fork_299_mg0_slots >= 0
  49 phi_3_fork_299_mg0_flop - timeElastic_phiC_1_out1_mg0 + timeElastic_forkC_7_in1_mg0 >= 0
  -phi_3_fork_299_mg0_flop + phi_3_fork_299_mg0_slots >= 0
  0.99 phi_3_fork_299_mg0_slots >= 0
  49 branch_0_phi_344_mg0_flop + timeElastic_phi_3_in2_mg0 - timeElastic_branch_0_out2_mg0 >= 0
  -branch_0_phi_344_mg0_flop + branch_0_phi_344_mg0_slots >= 0
  -0.01 branch_0_phi_344_mg0_slots + branch_0_phi_344_mg0_hasBuffer >= 0
  49 phi_n3_fork_8118_mg0_flop - timeElastic_phi_n3_out1_mg0 + timeElastic_fork_8_in1_mg0 >= 0
  -phi_n3_fork_8118_mg0_flop + phi_n3_fork_8118_mg0_slots >= 0
  -0.01 phi_n3_fork_8118_mg0_slots + phi_n3_fork_8118_mg0_hasBuffer >= 0
  49 branch_4_phi_n077_mg0_flop + timeElastic_phi_n0_in2_mg0 - timeElastic_branch_4_out2_mg0 >= 0
  -branch_4_phi_n077_mg0_flop + branch_4_phi_n077_mg0_slots >= 0
  -0.01 branch_4_phi_n077_mg0_slots + branch_4_phi_n077_mg0_hasBuffer >= 0
  49 branchC_7_phiC_181_mg0_flop + timeElastic_phiC_1_in2_mg0 - timeElastic_branchC_7_out2_mg0 >= 0
  -branchC_7_phiC_181_mg0_flop + branchC_7_phiC_181_mg0_slots >= 0
  -0.01 branchC_7_phiC_181_mg0_slots + branchC_7_phiC_181_mg0_hasBuffer >= 0
  49 fork_2_load_648_mg0_flop + timeElastic_load_6_in2_mg0 - timeElastic_fork_2_out2_mg0 >= 0
  -fork_2_load_648_mg0_flop + fork_2_load_648_mg0_slots >= 0
  -0.01 fork_2_load_648_mg0_slots + fork_2_load_648_mg0_hasBuffer >= 0
  49 fork_2_load_952_mg0_flop + timeElastic_load_9_in2_mg0 - timeElastic_fork_2_out3_mg0 >= 0
  -fork_2_load_952_mg0_flop + fork_2_load_952_mg0_slots >= 0
  -0.01 fork_2_load_952_mg0_slots + fork_2_load_952_mg0_hasBuffer >= 0
  49 fork_2_add_1668_mg0_flop + timeElastic_add_16_in1_mg0 - timeElastic_fork_2_out1_mg0 >= 0
  -fork_2_add_1668_mg0_flop + fork_2_add_1668_mg0_slots >= 0
  -0.01 fork_2_add_1668_mg0_slots + fork_2_add_1668_mg0_hasBuffer >= 0
  49 fork_3_icmp_1771_mg0_flop + timeElastic_icmp_17_in1_mg0 - timeElastic_fork_3_out1_mg0 >= 0
  -fork_3_icmp_1771_mg0_flop + fork_3_icmp_1771_mg0_slots >= 0
  -0.01 fork_3_icmp_1771_mg0_slots + fork_3_icmp_1771_mg0_hasBuffer >= 0
  49 fork_3_branch_084_mg0_flop + timeElastic_branch_0_in1_mg0 - timeElastic_fork_3_out2_mg0 >= 0
  -fork_3_branch_084_mg0_flop + fork_3_branch_084_mg0_slots >= 0
  -0.01 fork_3_branch_084_mg0_slots + fork_3_branch_084_mg0_hasBuffer >= 0
  49 fork_4_branch_085_mg0_flop + timeElastic_branch_0_in2_mg0 - timeElastic_fork_4_out1_mg0 >= 0
  -fork_4_branch_085_mg0_flop + fork_4_branch_085_mg0_slots >= 0
  -0.01 fork_4_branch_085_mg0_slots + fork_4_branch_085_mg0_hasBuffer >= 0
  49 fork_4_phi_n389_mg0_flop + timeElastic_phi_n3_in2_mg0 - timeElastic_fork_4_out2_mg0 >= 0
  -fork_4_phi_n389_mg0_flop + fork_4_phi_n389_mg0_slots >= 0
  -0.01 fork_4_phi_n389_mg0_slots + fork_4_phi_n389_mg0_hasBuffer >= 0
  49 fork_4_branch_492_mg0_flop + timeElastic_branch_4_in2_mg0 - timeElastic_fork_4_out3_mg0 >= 0
  -fork_4_branch_492_mg0_flop + fork_4_branch_492_mg0_slots >= 0
  -0.01 fork_4_branch_492_mg0_slots + fork_4_branch_492_mg0_hasBuffer >= 0
  49 fork_4_branchC_796_mg0_flop + timeElastic_branchC_7_in2_mg0 - timeElastic_fork_4_out4_mg0 >= 0
  -fork_4_branchC_796_mg0_flop + fork_4_branchC_796_mg0_slots >= 0
  -0.01 fork_4_branchC_796_mg0_slots + fork_4_branchC_796_mg0_hasBuffer >= 0
  49 fork_6_icmp_1772_mg0_flop + timeElastic_icmp_17_in2_mg0 - timeElastic_fork_6_out1_mg0 >= 0
  -fork_6_icmp_1772_mg0_flop + fork_6_icmp_1772_mg0_slots >= 0
  -0.01 fork_6_icmp_1772_mg0_slots + fork_6_icmp_1772_mg0_hasBuffer >= 0
  49 fork_6_branch_491_mg0_flop + timeElastic_branch_4_in1_mg0 - timeElastic_fork_6_out2_mg0 >= 0
  -fork_6_branch_491_mg0_flop + fork_6_branch_491_mg0_slots >= 0
  -0.01 fork_6_branch_491_mg0_slots + fork_6_branch_491_mg0_hasBuffer >= 0
  49 forkC_7_cst_266_mg0_flop + timeElastic_cst_2_in1_mg0 - timeElastic_forkC_7_out1_mg0 >= 0
  -forkC_7_cst_266_mg0_flop + forkC_7_cst_266_mg0_slots >= 0
  -0.01 forkC_7_cst_266_mg0_slots + forkC_7_cst_266_mg0_hasBuffer >= 0
  49 forkC_7_forkC_074_mg0_flop + timeElastic_forkC_0_in1_mg0 - timeElastic_forkC_7_out3_mg0 >= 0
  -forkC_7_forkC_074_mg0_flop + forkC_7_forkC_074_mg0_slots >= 0
  -0.01 forkC_7_forkC_074_mg0_slots + forkC_7_forkC_074_mg0_hasBuffer >= 0
  49 forkC_7_branchC_795_mg0_flop + timeElastic_branchC_7_in1_mg0 - timeElastic_forkC_7_out2_mg0 >= 0
  -forkC_7_branchC_795_mg0_flop + forkC_7_branchC_795_mg0_slots >= 0
  -0.01 forkC_7_branchC_795_mg0_slots + forkC_7_branchC_795_mg0_hasBuffer >= 0
  49 fork_8_phi_343_mg0_flop + timeElastic_phi_3_in1_mg0 - timeElastic_fork_8_out1_mg0 >= 0
  -fork_8_phi_343_mg0_flop + fork_8_phi_343_mg0_slots >= 0
  -0.01 fork_8_phi_343_mg0_slots + fork_8_phi_343_mg0_hasBuffer >= 0
  49 fork_8_phi_n076_mg0_flop + timeElastic_phi_n0_in1_mg0 - timeElastic_fork_8_out2_mg0 >= 0
  -fork_8_phi_n076_mg0_flop + fork_8_phi_n076_mg0_slots >= 0
  -0.01 fork_8_phi_n076_mg0_slots + fork_8_phi_n076_mg0_hasBuffer >= 0
  49 fork_8_phiC_180_mg0_flop + timeElastic_phiC_1_in1_mg0 - timeElastic_fork_8_out3_mg0 >= 0
  -fork_8_phiC_180_mg0_flop + fork_8_phiC_180_mg0_slots >= 0
  -0.01 fork_8_phiC_180_mg0_slots + fork_8_phiC_180_mg0_hasBuffer >= 0
  49 fork_10_load_1256_mg0_flop + timeElastic_load_12_in2_mg0 - timeElastic_fork_10_out1_mg0 >= 0
  -fork_10_load_1256_mg0_flop + fork_10_load_1256_mg0_slots >= 0
  -0.01 fork_10_load_1256_mg0_slots + fork_10_load_1256_mg0_hasBuffer >= 0
  49 fork_10_store_063_mg0_flop + timeElastic_store_0_in2_mg0 - timeElastic_fork_10_out2_mg0 >= 0
  -fork_10_store_063_mg0_flop + fork_10_store_063_mg0_slots >= 0
  -0.01 fork_10_store_063_mg0_slots + fork_10_store_063_mg0_hasBuffer >= 0
  -timeElastic_phi_3_in1_mg0 + timeElastic_phi_3_out1_mg0 >= 1
  -timeElastic_phi_3_in2_mg0 + timeElastic_phi_3_out1_mg0 >= 1
  -timeElastic_load_6_in2_mg0 + timeElastic_load_6_out1_mg0 >= 1
  -timeElastic_load_9_in2_mg0 + timeElastic_load_9_out1_mg0 >= 1
  -timeElastic_load_12_in2_mg0 + timeElastic_load_12_out1_mg0 >= 1
  -timeElastic_add_13_in1_mg0 + timeElastic_add_13_out1_mg0 >= 1
  -timeElastic_add_13_in2_mg0 + timeElastic_add_13_out1_mg0 >= 1
  -timeElastic_cst_2_in1_mg0 + timeElastic_cst_2_out1_mg0 >= 1
  -timeElastic_add_16_in1_mg0 + timeElastic_add_16_out1_mg0 >= 1
  -timeElastic_add_16_in2_mg0 + timeElastic_add_16_out1_mg0 >= 1
  -timeElastic_icmp_17_in1_mg0 + timeElastic_icmp_17_out1_mg0 >= 1
  -timeElastic_icmp_17_in2_mg0 + timeElastic_icmp_17_out1_mg0 >= 1
  -timeElastic_phi_n0_in1_mg0 + timeElastic_phi_n0_out1_mg0 >= 1
  -timeElastic_phi_n0_in2_mg0 + timeElastic_phi_n0_out1_mg0 >= 1
  -timeElastic_phiC_1_in1_mg0 + timeElastic_phiC_1_out1_mg0 >= 1
  -timeElastic_phiC_1_in2_mg0 + timeElastic_phiC_1_out1_mg0 >= 1
  -timeElastic_branch_0_in1_mg0 + timeElastic_branch_0_out2_mg0 >= 1
  -timeElastic_branch_0_in2_mg0 + timeElastic_branch_0_out2_mg0 >= 1
  -timeElastic_phi_n3_in2_mg0 + timeElastic_phi_n3_out1_mg0 >= 1
  -timeElastic_branch_4_in1_mg0 + timeElastic_branch_4_out2_mg0 >= 1
  -timeElastic_branch_4_in2_mg0 + timeElastic_branch_4_out2_mg0 >= 1
  -timeElastic_branchC_7_in1_mg0 + timeElastic_branchC_7_out2_mg0 >= 1
  -timeElastic_branchC_7_in2_mg0 + timeElastic_branchC_7_out2_mg0 >= 1
  -timeElastic_fork_2_in1_mg0 + timeElastic_fork_2_out1_mg0 >= 1
  -timeElastic_fork_2_in1_mg0 + timeElastic_fork_2_out2_mg0 >= 1
  -timeElastic_fork_2_in1_mg0 + timeElastic_fork_2_out3_mg0 >= 1
  -timeElastic_fork_3_in1_mg0 + timeElastic_fork_3_out1_mg0 >= 1
  -timeElastic_fork_3_in1_mg0 + timeElastic_fork_3_out2_mg0 >= 1
  -timeElastic_fork_4_in1_mg0 + timeElastic_fork_4_out1_mg0 >= 1
  -timeElastic_fork_4_in1_mg0 + timeElastic_fork_4_out2_mg0 >= 1
  -timeElastic_fork_4_in1_mg0 + timeElastic_fork_4_out3_mg0 >= 1
  -timeElastic_fork_4_in1_mg0 + timeElastic_fork_4_out4_mg0 >= 1
  -timeElastic_fork_6_in1_mg0 + timeElastic_fork_6_out1_mg0 >= 1
  -timeElastic_fork_6_in1_mg0 + timeElastic_fork_6_out2_mg0 >= 1
  -timeElastic_forkC_7_in1_mg0 + timeElastic_forkC_7_out1_mg0 >= 1
  -timeElastic_forkC_7_in1_mg0 + timeElastic_forkC_7_out2_mg0 >= 1
  -timeElastic_forkC_7_in1_mg0 + timeElastic_forkC_7_out3_mg0 >= 1
  -timeElastic_fork_8_in1_mg0 + timeElastic_fork_8_out1_mg0 >= 1
  -timeElastic_fork_8_in1_mg0 + timeElastic_fork_8_out2_mg0 >= 1
  -timeElastic_fork_8_in1_mg0 + timeElastic_fork_8_out3_mg0 >= 1
  -timeElastic_fork_10_in1_mg0 + timeElastic_fork_10_out1_mg0 >= 1
  -timeElastic_fork_10_in1_mg0 + timeElastic_fork_10_out2_mg0 >= 1
  inRetimeTok_phi_3_mg0_submg0 - inRetimeTok_fork_2_mg0_submg0 + thTok_phi_3_fork_299_mg0_submg0 = 0
  phi_3_fork_299_mg0_flop + x231 - thTok_phi_3_fork_299_mg0_submg0 <= 1
  phi_3_fork_299_mg0_flop - phi_3_fork_299_mg0_slots + x231 + thTok_phi_3_fork_299_mg0_submg0 <= 1
  -phi_3_fork_299_mg0_slots + thTok_phi_3_fork_299_mg0_submg0 <= 0
  outRetimeTok_load_6_mg0_submg0 - inRetimeTok_fork_10_mg0_submg0 + thTok_load_6_fork_10122_mg0_submg0 = 0
  load_6_fork_10122_mg0_flop + x231 - thTok_load_6_fork_10122_mg0_submg0 <= 1
  load_6_fork_10122_mg0_flop - load_6_fork_10122_mg0_slots + x231 + thTok_load_6_fork_10122_mg0_submg0 <= 1
  -load_6_fork_10122_mg0_slots + thTok_load_6_fork_10122_mg0_submg0 <= 0
  outRetimeTok_load_9_mg0_submg0 - inRetimeTok_add_13_mg0_submg0 + thTok_load_9_add_1360_mg0_submg0 = 0
  load_9_add_1360_mg0_flop + x231 - thTok_load_9_add_1360_mg0_submg0 <= 1
  load_9_add_1360_mg0_flop - load_9_add_1360_mg0_slots + x231 + thTok_load_9_add_1360_mg0_submg0 <= 1
  -load_9_add_1360_mg0_slots + thTok_load_9_add_1360_mg0_submg0 <= 0
  outRetimeTok_load_12_mg0_submg0 - inRetimeTok_add_13_mg0_submg0 + thTok_load_12_add_1359_mg0_submg0 = 0
  load_12_add_1359_mg0_flop + x231 - thTok_load_12_add_1359_mg0_submg0 <= 1
  load_12_add_1359_mg0_flop - load_12_add_1359_mg0_slots + x231 + thTok_load_12_add_1359_mg0_submg0 <= 1
  -load_12_add_1359_mg0_slots + thTok_load_12_add_1359_mg0_submg0 <= 0
  inRetimeTok_cst_2_mg0_submg0 - inRetimeTok_add_16_mg0_submg0 + thTok_cst_2_add_1669_mg0_submg0 = 0
  cst_2_add_1669_mg0_flop + x231 - thTok_cst_2_add_1669_mg0_submg0 <= 1
  cst_2_add_1669_mg0_flop - cst_2_add_1669_mg0_slots + x231 + thTok_cst_2_add_1669_mg0_submg0 <= 1
  -cst_2_add_1669_mg0_slots + thTok_cst_2_add_1669_mg0_submg0 <= 0
  inRetimeTok_add_16_mg0_submg0 - inRetimeTok_fork_3_mg0_submg0 + thTok_add_16_fork_3103_mg0_submg0 = 0
  add_16_fork_3103_mg0_flop + x231 - thTok_add_16_fork_3103_mg0_submg0 <= 1
  add_16_fork_3103_mg0_flop - add_16_fork_3103_mg0_slots + x231 + thTok_add_16_fork_3103_mg0_submg0 <= 1
  -add_16_fork_3103_mg0_slots + thTok_add_16_fork_3103_mg0_submg0 <= 0
  inRetimeTok_icmp_17_mg0_submg0 - inRetimeTok_fork_4_mg0_submg0 + thTok_icmp_17_fork_4106_mg0_submg0 = 0
  icmp_17_fork_4106_mg0_flop + x231 - thTok_icmp_17_fork_4106_mg0_submg0 <= 1
  icmp_17_fork_4106_mg0_flop - icmp_17_fork_4106_mg0_slots + x231 + thTok_icmp_17_fork_4106_mg0_submg0 <= 1
  -icmp_17_fork_4106_mg0_slots + thTok_icmp_17_fork_4106_mg0_submg0 <= 0
  inRetimeTok_phi_n0_mg0_submg0 - inRetimeTok_fork_6_mg0_submg0 + thTok_phi_n0_fork_6111_mg0_submg0 = 0
  phi_n0_fork_6111_mg0_flop + x231 - thTok_phi_n0_fork_6111_mg0_submg0 <= 1
  phi_n0_fork_6111_mg0_flop - phi_n0_fork_6111_mg0_slots + x231 + thTok_phi_n0_fork_6111_mg0_submg0 <= 1
  -phi_n0_fork_6111_mg0_slots + thTok_phi_n0_fork_6111_mg0_submg0 <= 0
  inRetimeTok_phiC_1_mg0_submg0 - inRetimeTok_forkC_7_mg0_submg0 + thTok_phiC_1_forkC_7114_mg0_submg0 = 0
  phiC_1_forkC_7114_mg0_flop + x231 - thTok_phiC_1_forkC_7114_mg0_submg0 <= 1
  phiC_1_forkC_7114_mg0_flop - phiC_1_forkC_7114_mg0_slots + x231 + thTok_phiC_1_forkC_7114_mg0_submg0 <= 1
  -phiC_1_forkC_7114_mg0_slots + thTok_phiC_1_forkC_7114_mg0_submg0 <= 0
  -inRetimeTok_phi_3_mg0_submg0 + inRetimeTok_branch_0_mg0_submg0 + thTok_branch_0_phi_344_mg0_submg0 = 1
  branch_0_phi_344_mg0_flop + x231 - thTok_branch_0_phi_344_mg0_submg0 <= 1
  branch_0_phi_344_mg0_flop - branch_0_phi_344_mg0_slots + x231 + thTok_branch_0_phi_344_mg0_submg0 <= 1
  -branch_0_phi_344_mg0_slots + thTok_branch_0_phi_344_mg0_submg0 <= 0
  inRetimeTok_phi_n3_mg0_submg0 - inRetimeTok_fork_8_mg0_submg0 + thTok_phi_n3_fork_8118_mg0_submg0 = 0
  phi_n3_fork_8118_mg0_flop + x231 - thTok_phi_n3_fork_8118_mg0_submg0 <= 1
  phi_n3_fork_8118_mg0_flop - phi_n3_fork_8118_mg0_slots + x231 + thTok_phi_n3_fork_8118_mg0_submg0 <= 1
  -phi_n3_fork_8118_mg0_slots + thTok_phi_n3_fork_8118_mg0_submg0 <= 0
  -inRetimeTok_phi_n0_mg0_submg0 + inRetimeTok_branch_4_mg0_submg0 + thTok_branch_4_phi_n077_mg0_submg0 = 1
  branch_4_phi_n077_mg0_flop + x231 - thTok_branch_4_phi_n077_mg0_submg0 <= 1
  branch_4_phi_n077_mg0_flop - branch_4_phi_n077_mg0_slots + x231 + thTok_branch_4_phi_n077_mg0_submg0 <= 1
  -branch_4_phi_n077_mg0_slots + thTok_branch_4_phi_n077_mg0_submg0 <= 0
  -inRetimeTok_phiC_1_mg0_submg0 + inRetimeTok_branchC_7_mg0_submg0 + thTok_branchC_7_phiC_181_mg0_submg0 = 1
  branchC_7_phiC_181_mg0_flop + x231 - thTok_branchC_7_phiC_181_mg0_submg0 <= 1
  branchC_7_phiC_181_mg0_flop - branchC_7_phiC_181_mg0_slots + x231 + thTok_branchC_7_phiC_181_mg0_submg0 <= 1
  -branchC_7_phiC_181_mg0_slots + thTok_branchC_7_phiC_181_mg0_submg0 <= 0
  -inRetimeTok_load_6_mg0_submg0 + inRetimeTok_fork_2_mg0_submg0 + thTok_fork_2_load_648_mg0_submg0 = 0
  fork_2_load_648_mg0_flop + x231 - thTok_fork_2_load_648_mg0_submg0 <= 1
  fork_2_load_648_mg0_flop - fork_2_load_648_mg0_slots + x231 + thTok_fork_2_load_648_mg0_submg0 <= 1
  -fork_2_load_648_mg0_slots + thTok_fork_2_load_648_mg0_submg0 <= 0
  -inRetimeTok_load_9_mg0_submg0 + inRetimeTok_fork_2_mg0_submg0 + thTok_fork_2_load_952_mg0_submg0 = 0
  fork_2_load_952_mg0_flop + x231 - thTok_fork_2_load_952_mg0_submg0 <= 1
  fork_2_load_952_mg0_flop - fork_2_load_952_mg0_slots + x231 + thTok_fork_2_load_952_mg0_submg0 <= 1
  -fork_2_load_952_mg0_slots + thTok_fork_2_load_952_mg0_submg0 <= 0
  -inRetimeTok_add_16_mg0_submg0 + inRetimeTok_fork_2_mg0_submg0 + thTok_fork_2_add_1668_mg0_submg0 = 0
  fork_2_add_1668_mg0_flop + x231 - thTok_fork_2_add_1668_mg0_submg0 <= 1
  fork_2_add_1668_mg0_flop - fork_2_add_1668_mg0_slots + x231 + thTok_fork_2_add_1668_mg0_submg0 <= 1
  -fork_2_add_1668_mg0_slots + thTok_fork_2_add_1668_mg0_submg0 <= 0
  -inRetimeTok_icmp_17_mg0_submg0 + inRetimeTok_fork_3_mg0_submg0 + thTok_fork_3_icmp_1771_mg0_submg0 = 0
  fork_3_icmp_1771_mg0_flop + x231 - thTok_fork_3_icmp_1771_mg0_submg0 <= 1
  fork_3_icmp_1771_mg0_flop - fork_3_icmp_1771_mg0_slots + x231 + thTok_fork_3_icmp_1771_mg0_submg0 <= 1
  -fork_3_icmp_1771_mg0_slots + thTok_fork_3_icmp_1771_mg0_submg0 <= 0
  -inRetimeTok_branch_0_mg0_submg0 + inRetimeTok_fork_3_mg0_submg0 + thTok_fork_3_branch_084_mg0_submg0 = 0
  fork_3_branch_084_mg0_flop + x231 - thTok_fork_3_branch_084_mg0_submg0 <= 1
  fork_3_branch_084_mg0_flop - fork_3_branch_084_mg0_slots + x231 + thTok_fork_3_branch_084_mg0_submg0 <= 1
  -fork_3_branch_084_mg0_slots + thTok_fork_3_branch_084_mg0_submg0 <= 0
  -inRetimeTok_branch_0_mg0_submg0 + inRetimeTok_fork_4_mg0_submg0 + thTok_fork_4_branch_085_mg0_submg0 = 0
  fork_4_branch_085_mg0_flop + x231 - thTok_fork_4_branch_085_mg0_submg0 <= 1
  fork_4_branch_085_mg0_flop - fork_4_branch_085_mg0_slots + x231 + thTok_fork_4_branch_085_mg0_submg0 <= 1
  -fork_4_branch_085_mg0_slots + thTok_fork_4_branch_085_mg0_submg0 <= 0
  -inRetimeTok_phi_n3_mg0_submg0 + inRetimeTok_fork_4_mg0_submg0 + thTok_fork_4_phi_n389_mg0_submg0 = 1
  fork_4_phi_n389_mg0_flop + x231 - thTok_fork_4_phi_n389_mg0_submg0 <= 1
  fork_4_phi_n389_mg0_flop - fork_4_phi_n389_mg0_slots + x231 + thTok_fork_4_phi_n389_mg0_submg0 <= 1
  -fork_4_phi_n389_mg0_slots + thTok_fork_4_phi_n389_mg0_submg0 <= 0
  -inRetimeTok_branch_4_mg0_submg0 + inRetimeTok_fork_4_mg0_submg0 + thTok_fork_4_branch_492_mg0_submg0 = 0
  fork_4_branch_492_mg0_flop + x231 - thTok_fork_4_branch_492_mg0_submg0 <= 1
  fork_4_branch_492_mg0_flop - fork_4_branch_492_mg0_slots + x231 + thTok_fork_4_branch_492_mg0_submg0 <= 1
  -fork_4_branch_492_mg0_slots + thTok_fork_4_branch_492_mg0_submg0 <= 0
  -inRetimeTok_branchC_7_mg0_submg0 + inRetimeTok_fork_4_mg0_submg0 + thTok_fork_4_branchC_796_mg0_submg0 = 0
  fork_4_branchC_796_mg0_flop + x231 - thTok_fork_4_branchC_796_mg0_submg0 <= 1
  fork_4_branchC_796_mg0_flop - fork_4_branchC_796_mg0_slots + x231 + thTok_fork_4_branchC_796_mg0_submg0 <= 1
  -fork_4_branchC_796_mg0_slots + thTok_fork_4_branchC_796_mg0_submg0 <= 0
  -inRetimeTok_icmp_17_mg0_submg0 + inRetimeTok_fork_6_mg0_submg0 + thTok_fork_6_icmp_1772_mg0_submg0 = 0
  fork_6_icmp_1772_mg0_flop + x231 - thTok_fork_6_icmp_1772_mg0_submg0 <= 1
  fork_6_icmp_1772_mg0_flop - fork_6_icmp_1772_mg0_slots + x231 + thTok_fork_6_icmp_1772_mg0_submg0 <= 1
  -fork_6_icmp_1772_mg0_slots + thTok_fork_6_icmp_1772_mg0_submg0 <= 0
  -inRetimeTok_branch_4_mg0_submg0 + inRetimeTok_fork_6_mg0_submg0 + thTok_fork_6_branch_491_mg0_submg0 = 0
  fork_6_branch_491_mg0_flop + x231 - thTok_fork_6_branch_491_mg0_submg0 <= 1
  fork_6_branch_491_mg0_flop - fork_6_branch_491_mg0_slots + x231 + thTok_fork_6_branch_491_mg0_submg0 <= 1
  -fork_6_branch_491_mg0_slots + thTok_fork_6_branch_491_mg0_submg0 <= 0
  -inRetimeTok_cst_2_mg0_submg0 + inRetimeTok_forkC_7_mg0_submg0 + thTok_forkC_7_cst_266_mg0_submg0 = 0
  forkC_7_cst_266_mg0_flop + x231 - thTok_forkC_7_cst_266_mg0_submg0 <= 1
  forkC_7_cst_266_mg0_flop - forkC_7_cst_266_mg0_slots + x231 + thTok_forkC_7_cst_266_mg0_submg0 <= 1
  -forkC_7_cst_266_mg0_slots + thTok_forkC_7_cst_266_mg0_submg0 <= 0
  -inRetimeTok_forkC_0_mg0_submg0 + inRetimeTok_forkC_7_mg0_submg0 + thTok_forkC_7_forkC_074_mg0_submg0 = 0
  forkC_7_forkC_074_mg0_flop + x231 - thTok_forkC_7_forkC_074_mg0_submg0 <= 1
  forkC_7_forkC_074_mg0_flop - forkC_7_forkC_074_mg0_slots + x231 + thTok_forkC_7_forkC_074_mg0_submg0 <= 1
  -forkC_7_forkC_074_mg0_slots + thTok_forkC_7_forkC_074_mg0_submg0 <= 0
  -inRetimeTok_branchC_7_mg0_submg0 + inRetimeTok_forkC_7_mg0_submg0 + thTok_forkC_7_branchC_795_mg0_submg0 = 0
  forkC_7_branchC_795_mg0_flop + x231 - thTok_forkC_7_branchC_795_mg0_submg0 <= 1
  forkC_7_branchC_795_mg0_flop - forkC_7_branchC_795_mg0_slots + x231 + thTok_forkC_7_branchC_795_mg0_submg0 <= 1
  -forkC_7_branchC_795_mg0_slots + thTok_forkC_7_branchC_795_mg0_submg0 <= 0
  -inRetimeTok_phi_3_mg0_submg0 + inRetimeTok_fork_8_mg0_submg0 + thTok_fork_8_phi_343_mg0_submg0 = 0
  fork_8_phi_343_mg0_flop + x231 - thTok_fork_8_phi_343_mg0_submg0 <= 1
  fork_8_phi_343_mg0_flop - fork_8_phi_343_mg0_slots + x231 + thTok_fork_8_phi_343_mg0_submg0 <= 1
  -fork_8_phi_343_mg0_slots + thTok_fork_8_phi_343_mg0_submg0 <= 0
  -inRetimeTok_phi_n0_mg0_submg0 + inRetimeTok_fork_8_mg0_submg0 + thTok_fork_8_phi_n076_mg0_submg0 = 0
  fork_8_phi_n076_mg0_flop + x231 - thTok_fork_8_phi_n076_mg0_submg0 <= 1
  fork_8_phi_n076_mg0_flop - fork_8_phi_n076_mg0_slots + x231 + thTok_fork_8_phi_n076_mg0_submg0 <= 1
  -fork_8_phi_n076_mg0_slots + thTok_fork_8_phi_n076_mg0_submg0 <= 0
  -inRetimeTok_phiC_1_mg0_submg0 + inRetimeTok_fork_8_mg0_submg0 + thTok_fork_8_phiC_180_mg0_submg0 = 0
  fork_8_phiC_180_mg0_flop + x231 - thTok_fork_8_phiC_180_mg0_submg0 <= 1
  fork_8_phiC_180_mg0_flop - fork_8_phiC_180_mg0_slots + x231 + thTok_fork_8_phiC_180_mg0_submg0 <= 1
  -fork_8_phiC_180_mg0_slots + thTok_fork_8_phiC_180_mg0_submg0 <= 0
  -inRetimeTok_load_12_mg0_submg0 + inRetimeTok_fork_10_mg0_submg0 + thTok_fork_10_load_1256_mg0_submg0 = 0
  fork_10_load_1256_mg0_flop + x231 - thTok_fork_10_load_1256_mg0_submg0 <= 1
  fork_10_load_1256_mg0_flop - fork_10_load_1256_mg0_slots + x231 + thTok_fork_10_load_1256_mg0_submg0 <= 1
  -fork_10_load_1256_mg0_slots + thTok_fork_10_load_1256_mg0_submg0 <= 0
  -inRetimeTok_load_6_mg0_submg0 + outRetimeTok_load_6_mg0_submg0 <= 2
  -2 x231 - inRetimeTok_load_6_mg0_submg0 + outRetimeTok_load_6_mg0_submg0 >= 0
  -inRetimeTok_load_9_mg0_submg0 + outRetimeTok_load_9_mg0_submg0 <= 2
  -2 x231 - inRetimeTok_load_9_mg0_submg0 + outRetimeTok_load_9_mg0_submg0 >= 0
  -inRetimeTok_load_12_mg0_submg0 + outRetimeTok_load_12_mg0_submg0 <= 5
  -5 x231 - inRetimeTok_load_12_mg0_submg0 + outRetimeTok_load_12_mg0_submg0 >= 0
General
  phi_3_fork_299_mg0_slots load_6_fork_10122_mg0_slots load_9_add_1360_mg0_slots load_12_add_1359_mg0_slots add_13_store_062_mg0_slots cst_2_add_1669_mg0_slots add_16_fork_3103_mg0_slots icmp_17_fork_4106_mg0_slots phi_n0_fork_6111_mg0_slots phiC_1_forkC_7114_mg0_slots branch_0_phi_344_mg0_slots phi_n3_fork_8118_mg0_slots branch_4_phi_n077_mg0_slots branchC_7_phiC_181_mg0_slots fork_2_load_648_mg0_slots fork_2_load_952_mg0_slots fork_2_add_1668_mg0_slots fork_3_icmp_1771_mg0_slots fork_3_branch_084_mg0_slots fork_4_branch_085_mg0_slots fork_4_phi_n389_mg0_slots fork_4_branch_492_mg0_slots fork_4_branchC_796_mg0_slots fork_6_icmp_1772_mg0_slots fork_6_branch_491_mg0_slots forkC_7_cst_266_mg0_slots forkC_7_forkC_074_mg0_slots forkC_7_branchC_795_mg0_slots fork_8_phi_343_mg0_slots fork_8_phi_n076_mg0_slots fork_8_phiC_180_mg0_slots fork_10_load_1256_mg0_slots fork_10_store_063_mg0_slots
Binary
  phi_3_fork_299_mg0_flop phi_3_fork_299_mg0_hasBuffer load_6_fork_10122_mg0_flop load_6_fork_10122_mg0_hasBuffer load_9_add_1360_mg0_flop load_9_add_1360_mg0_hasBuffer load_12_add_1359_mg0_flop load_12_add_1359_mg0_hasBuffer add_13_store_062_mg0_flop add_13_store_062_mg0_hasBuffer cst_2_add_1669_mg0_flop cst_2_add_1669_mg0_hasBuffer add_16_fork_3103_mg0_flop add_16_fork_3103_mg0_hasBuffer icmp_17_fork_4106_mg0_flop icmp_17_fork_4106_mg0_hasBuffer phi_n0_fork_6111_mg0_flop phi_n0_fork_6111_mg0_hasBuffer phiC_1_forkC_7114_mg0_flop phiC_1_forkC_7114_mg0_hasBuffer branch_0_phi_344_mg0_flop branch_0_phi_344_mg0_hasBuffer phi_n3_fork_8118_mg0_flop phi_n3_fork_8118_mg0_hasBuffer branch_4_phi_n077_mg0_flop branch_4_phi_n077_mg0_hasBuffer branchC_7_phiC_181_mg0_flop branchC_7_phiC_181_mg0_hasBuffer fork_2_load_648_mg0_flop fork_2_load_648_mg0_hasBuffer fork_2_load_952_mg0_flop fork_2_load_952_mg0_hasBuffer fork_2_add_1668_mg0_flop fork_2_add_1668_mg0_hasBuffer fork_3_icmp_1771_mg0_flop fork_3_icmp_1771_mg0_hasBuffer fork_3_branch_084_mg0_flop fork_3_branch_084_mg0_hasBuffer fork_4_branch_085_mg0_flop fork_4_branch_085_mg0_hasBuffer fork_4_phi_n389_mg0_flop fork_4_phi_n389_mg0_hasBuffer fork_4_branch_492_mg0_flop fork_4_branch_492_mg0_hasBuffer fork_4_branchC_796_mg0_flop fork_4_branchC_796_mg0_hasBuffer fork_6_icmp_1772_mg0_flop fork_6_icmp_1772_mg0_hasBuffer fork_6_branch_491_mg0_flop fork_6_branch_491_mg0_hasBuffer forkC_7_cst_266_mg0_flop forkC_7_cst_266_mg0_hasBuffer forkC_7_forkC_074_mg0_flop forkC_7_forkC_074_mg0_hasBuffer forkC_7_branchC_795_mg0_flop forkC_7_branchC_795_mg0_hasBuffer fork_8_phi_343_mg0_flop fork_8_phi_343_mg0_hasBuffer fork_8_phi_n076_mg0_flop fork_8_phi_n076_mg0_hasBuffer fork_8_phiC_180_mg0_flop fork_8_phiC_180_mg0_hasBuffer fork_10_load_1256_mg0_flop fork_10_load_1256_mg0_hasBuffer fork_10_store_063_mg0_flop fork_10_store_063_mg0_hasBuffer
End
